500
1000
700
697
696
696
696
694
693
693
692
689
689
688
688
688
687
685
685
681
681
681
676
676
676
674
674
667
667
666
665
664
663
663
660
659
658
658
657
657
656
654
654
651
651
651
651
651
650
650
649
643
641
640
639
636
635
634
633
631
623
620
620
619
617
616
614
612
612
610
609
608
608
605
605
604
604
604
604
602
602
602
600
598
597
596
595
595
594
594
594
593
593
590
589
588
586
584
584
581
581
581
580
579
579
578
578
577
577
576
571
570
567
567
566
566
565
564
563
563
561
557
557
556
553
552
547
541
538
535
535
534
533
531
530
530
526
525
525
524
524
523
522
519
519
519
518
518
516
516
516
514
508
507
506
501
500
500
500
498
496
495
494
494
487
486
486
486
485
483
481
481
481
480
480
480
479
478
477
476
474
474
474
473
472
467
466
465
465
464
463
462
461
460
458
457
454
454
452
450
444
444
444
442
441
437
435
434
431
428
426
425
425
420
418
417
415
415
414
413
412
411
411
410
409
409
409
407
403
403
402
400
400
399
399
396
396
395
395
394
392
390
387
385
385
384
384
384
382
382
381
378
377
376
376
376
374
374
372
372
370
369
368
367
367
367
365
357
353
352
352
352
350
347
345
345
344
343
343
340
338
337
336
335
334
333
332
332
331
329
328
327
327
326
326
325
325
324
320
320
320
319
319
319
315
314
314
313
312
311
311
310
309
307
306
305
304
304
303
301
301
301
301
300
299
297
296
295
295
295
294
291
290
290
288
288
287
287
283
282
282
280
280
278
278
276
276
275
275
275
270
269
268
267
266
265
265
265
262
262
260
260
259
259
259
259
258
258
258
255
254
253
253
250
246
245
244
244
244
243
240
238
236
232
232
232
228
228
224
224
224
224
223
222
222
222
221
221
220
219
218
217
216
214
210
209
208
206
204
203
203
202
198
196
195
194
194
193
190
188
188
187
186
186
185
184
180
180
180
177
177
177
176
176
173
173
172
171
171
171
169
168
166
165
165
164
163
162
162
160
158
157
157
156
156
155
154
154
152
151
151
151
149
143
142
142
141
141
139
135
134
134
131
131
130
129
129
126
125
124
122
120
120
120
119
115
115
114
114
112
111
111
110
107
106
106
105
104
104
102
102
101
